20	5
0	7	2	4	20	6	5	3	1
1	2	16	10
2	2	9	10
3	1	9
4	2	13	9
5	1	21
6	1	13
7	2	11	13
8	1	15
9	1	21
10	1	7
11	1	17
12	1	15
13	1	12
14	1	19
15	1	17
16	2	9	21
17	1	21
18	1	21
19	1	21
20	1	21
21	0
0	0	0	0	0	0	0
1	2	3	2	3	2	4
2	9	1	3	5	4	2
3	7	4	5	1	4	1
4	10	3	4	1	2	5
5	6	5	2	1	3	5
6	5	3	5	5	5	2
7	9	3	2	2	1	1
8	9	1	5	4	5	4
9	8	3	5	3	3	2
10	10	5	4	3	5	5
11	2	3	1	3	4	3
12	5	3	5	5	1	2
13	5	4	5	5	4	5
14	10	3	4	1	5	3
15	3	3	4	1	4	2
16	5	1	1	3	2	3
17	7	3	4	1	3	3
18	9	3	2	2	1	5
19	10	1	1	4	4	5
20	9	2	2	3	3	3
21	0	0	0	0	0	0
13	14	12	14	14
